(set-info :smt-lib-version 2.6)
(set-logic QF_UFLRA)
(set-info :source |
MathSat group

|)
(set-info :category "random")
(set-info :status unsat)
(declare-fun x0 () Real)
(declare-fun x1 () Real)
(declare-fun x2 () Real)
(declare-fun x3 () Real)
(declare-fun x4 () Real)
(declare-fun x5 () Real)
(declare-fun x6 () Real)
(declare-fun x7 () Real)
(declare-fun x8 () Real)
(declare-fun x9 () Real)
(declare-fun x10 () Real)
(declare-fun x11 () Real)
(declare-fun x12 () Real)
(declare-fun x13 () Real)
(declare-fun x14 () Real)
(declare-fun x15 () Real)
(declare-fun x16 () Real)
(declare-fun x17 () Real)
(declare-fun x18 () Real)
(declare-fun x19 () Real)
(declare-fun x20 () Real)
(declare-fun x21 () Real)
(declare-fun x22 () Real)
(declare-fun x23 () Real)
(declare-fun x24 () Real)
(declare-fun x25 () Real)
(declare-fun x26 () Real)
(declare-fun x27 () Real)
(declare-fun x28 () Real)
(declare-fun x29 () Real)
(declare-fun f0_1 (Real) Real)
(declare-fun f0_2 (Real Real) Real)
(declare-fun f0_3 (Real Real Real) Real)
(declare-fun f0_4 (Real Real Real Real) Real)
(declare-fun P0 () Bool)
(declare-fun P1 () Bool)
(declare-fun P2 () Bool)
(declare-fun P3 () Bool)
(declare-fun P4 () Bool)
(declare-fun P5 () Bool)
(declare-fun P6 () Bool)
(declare-fun P7 () Bool)
(declare-fun P8 () Bool)
(declare-fun P9 () Bool)
(declare-fun P10 () Bool)
(declare-fun P11 () Bool)
(declare-fun P12 () Bool)
(declare-fun P13 () Bool)
(declare-fun P14 () Bool)
(declare-fun P15 () Bool)
(declare-fun P16 () Bool)
(declare-fun P17 () Bool)
(declare-fun P18 () Bool)
(declare-fun P19 () Bool)
(declare-fun P20 () Bool)
(declare-fun P21 () Bool)
(declare-fun P22 () Bool)
(declare-fun P23 () Bool)
(declare-fun P24 () Bool)
(declare-fun P25 () Bool)
(declare-fun P26 () Bool)
(declare-fun P27 () Bool)
(declare-fun P28 () Bool)
(declare-fun P29 () Bool)
(assert (let ((?v_11 (<= (+ (- (* 10 x19) (* 34 x17)) (* 16 x11)) 8)) (?v_105 (* 32 x24)) (?v_148 (< (- (- (* 22 x1) (* 31 x18)) (* 28 x23)) 7)) (?v_21 (* 14 x12)) (?v_35 (* 36 x27)) (?v_139 (= (- (- (* 12 x8) (* 39 x8)) (* 25 x1)) 35)) (?v_73 (<= (+ (- (* 28 x4) (* 9 x17)) (* 26 x25)) 27)) (?v_2 (< (+ (- (* 27 x19) (* 17 x28)) (* 4 x10)) 14)) (?v_8 (f0_1 x29))) (let ((?v_42 (= (f0_1 x3) ?v_8)) (?v_71 (distinct (f0_2 x17 x10) (f0_2 x5 x17))) (?v_116 (= (f0_2 x27 x16) x0)) (?v_107 (f0_1 x12))) (let ((?v_118 (= (f0_2 x24 x8) ?v_107)) (?v_68 (= x27 x11)) (?v_10 (distinct x29 x7)) (?v_77 (= (f0_1 x19) x23)) (?v_110 (= (f0_2 x17 x11) (f0_2 x25 x12))) (?v_90 (= (f0_2 x10 x8) (f0_2 x18 x18))) (?v_16 (f0_1 x6))) (let ((?v_59 (distinct ?v_107 ?v_16)) (?v_17 (distinct x24 x15)) (?v_40 (distinct (f0_2 x16 x26) x15)) (?v_126 (= (f0_2 x6 x9) (f0_1 x14))) (?v_63 (= (f0_1 x26) (f0_2 x5 x26))) (?v_56 (f0_2 x29 x6)) (?v_20 (f0_1 x23))) (let ((?v_89 (distinct ?v_56 ?v_20)) (?v_55 (f0_1 x28))) (let ((?v_95 (= ?v_55 ?v_20)) (?v_60 (distinct ?v_56 (f0_2 x24 x15))) (?v_58 (= (f0_2 x9 x22) (f0_2 x23 x18))) (?v_25 (distinct x29 ?v_16)) (?v_57 (= (f0_2 x12 x24) x9)) (?v_50 (= (f0_2 x1 x12) x22)) (?v_53 (= x11 (f0_1 x13))) (?v_6 (= x17 (f0_2 x16 x15))) (?v_27 (= x15 (f0_2 x7 x5))) (?v_41 (= x12 ?v_8)) (?v_67 (= ?v_55 (f0_1 x21))) (?v_32 (= (f0_2 x28 x22) (f0_2 x9 x11))) (?v_1 (= x7 x24)) (?v_157 (distinct (f0_2 x14 x4) (f0_2 x10 x21))) (?v_4 (= (f0_2 x15 x10) (f0_2 x18 x7))) (?v_88 (not ?v_2))) (let ((?v_37 (not ?v_95)) (?v_76 (not ?v_11)) (?v_129 (not P13)) (?v_115 (not P5)) (?v_36 (not ?v_10)) (?v_9 (not ?v_4)) (?v_5 (not P26)) (?v_75 (not ?v_32)) (?v_28 (not ?v_58)) (?v_7 (not P17)) (?v_13 (not ?v_1)) (?v_83 (not ?v_6)) (?v_134 (not ?v_17)) (?v_31 (not ?v_126)) (?v_74 (not P12)) (?v_45 (not P29)) (?v_98 (not P15)) (?v_137 (not ?v_89)) (?v_122 (not ?v_157)) (?v_39 (not ?v_139)) (?v_84 (not P19)) (?v_29 (not P11)) (?v_49 (not P28)) (?v_61 (not P23)) (?v_121 (not P3)) (?v_136 (not ?v_40)) (?v_155 (not P0)) (?v_82 (not P8)) (?v_99 (not ?v_148)) (?v_47 (not P6)) (?v_103 (not ?v_27)) (?v_150 (not ?v_71)) (?v_124 (not P18)) (?v_78 (not ?v_116)) (?v_141 (not ?v_50)) (?v_101 (not P2)) (?v_66 (not ?v_53)) (?v_81 (not ?v_110)) (?v_128 (not ?v_60)) (?v_108 (not ?v_59)) (?v_69 (not ?v_25)) (?v_87 (not ?v_68)) (?v_119 (not ?v_63)) (?v_104 (not ?v_67)) (?v_79 (not P1)) (?v_92 (not P7)) (?v_111 (not ?v_42)) (?v_152 (not ?v_77)) (?v_85 (not P16)) (?v_114 (not ?v_41)) (?v_125 (not P14)) (?v_97 (not P10)) (?v_160 (not P22)) (?v_158 (not P20)) (?v_109 (not ?v_73)) (?v_142 (not P9)) (?v_123 (not ?v_118)) (?v_112 (not P27)) (?v_132 (not P24)) (?v_147 (not ?v_90)) (?v_145 (not P21)) (?v_140 (not P25)) (?v_151 (not ?v_57)) (?v_154 (not P4)) (?v_19 (< (+ (* 27 x15) (* 24 x13)) 21))) (let ((?v_106 (not ?v_19)) (?v_22 (< (- (- 0 (* 8 x2)) (* 13 x3)) 41)) (?v_30 (distinct (+ (* 42 x28) ?v_35 ?v_21) 38))) (let ((?v_34 (not ?v_30)) (?v_130 (not ?v_22)) (?v_96 (<= (+ (* 34 x4) (* 22 x7)) 36))) (let ((?v_86 (not ?v_96)) (?v_12 (< (+ (* 39 x18) (* 8 x16)) (- 31)))) (let ((?v_0 (not ?v_12)) (?v_3 (<= (+ (* 37 x23) (* 31 x16) x12) (- 10))) (?v_18 (<= (+ (- (* 28 x3) (* 8 x10)) (* 2 x21)) (- 34))) (?v_38 (<= (- (+ (* (- 13) x4) (* 28 x19)) (* 37 x21)) (- 44)))) (let ((?v_44 (not ?v_38)) (?v_52 (< (- (+ (* (- 16) x2) (* 41 x20)) (* 31 x25)) (- 12)))) (let ((?v_54 (not ?v_52)) (?v_14 (< (+ (- (* (- 26) x22) (* 13 x2)) (* 5 x29)) (- 18))) (?v_26 (< (+ (- (* 18 x8) (* 12 x13)) (* 38 x23)) (- 25)))) (let ((?v_24 (not ?v_26)) (?v_51 (<= (- (+ (* (- 32) x1) (* 36 x17)) (* 6 x23)) (- 35)))) (let ((?v_65 (not ?v_51)) (?v_15 (< (+ (* (- 17) x28) (* 12 x7) (* 5 x8)) 43)) (?v_135 (not ?v_14)) (?v_43 (< (- (+ (* (- 26) x8) (* 27 x6)) (* 25 x7)) 23))) (let ((?v_33 (not ?v_43)) (?v_62 (< (- (- (* (- 11) x25) ?v_21) x7) 9))) (let ((?v_48 (not ?v_62)) (?v_133 (<= (- (- (* (- 41) x10) (* 22 x6)) (* 35 x10)) (- 6)))) (let ((?v_23 (not ?v_133)) (?v_72 (< (- (- (* (- 4) x17) 0) ?v_105) (- 44))) (?v_91 (< (- (* 33 x29) (* 38 x2)) (- 35))) (?v_102 (not ?v_3)) (?v_80 (< (+ (- (* (- 24) x19) (* 13 x10)) ?v_35) 20))) (let ((?v_64 (not ?v_80)) (?v_46 (<= (+ (* (- 37) x5) (* 31 x9) (* 13 x14)) 42))) (let ((?v_144 (not ?v_46)) (?v_70 (not ?v_18)) (?v_149 (<= (- (+ (* (- 14) x5) (* 9 x11)) (* 21 x13)) 12))) (let ((?v_94 (not ?v_149)) (?v_138 (not ?v_15)) (?v_146 (or ?v_53 ?v_15)) (?v_100 (not ?v_72)) (?v_117 (< (+ (* (- 26) x4) (* 3 x18) (* 24 x2)) (- 43)))) (let ((?v_159 (not ?v_117)) (?v_93 (<= (+ (- (* (- 25) x5) (* 23 x15)) (* 14 x4)) 26)) (?v_143 (< (- (+ (* 22 x2) (* 33 x7)) 0) (- 38)))) (let ((?v_127 (not ?v_143)) (?v_120 (not ?v_93)) (?v_113 (< (+ (- (* (- 22) x9) ?v_105) (* 10 x12)) 10)) (?v_153 (not ?v_91))) (let ((?v_131 (not ?v_113)) (?v_156 (or ?v_79 ?v_26))) (and (and (and (and (and (and (and (and (and (and (and (and (and (and (and (and (and (and (and (and (and (and (and (and (and (and (and (and (and (and (and (and (and (and (and (and (and (and (and (and (and (and (and (and (and (and (and (and (and (and (and (and (and (and (and (and (and (and (and (and (and (and (and (and (and (and (and (and (and (and (and (and (and (and (and (and (and (and (and (and (and (and (and (and (and (and (and (and (and (and (and (and (and (and (and (and (and (and (and (and (and (and (and (and (and (and (and (and (and (and (and (and (and (and (and (and (and (and (and (and (and (and (and (and (and (and (and (and (and (and (and (and (and (and (and (and (and (and (and (and (and (and (and (and (and (and (and (and (and (and (and (and (and (and (and (and (and (and (and (and (and (and (and (and (and (and (and (and (and (and (and (and (and (and (and (and (and (and (and (and (and (and (and (and (and (and (and (and (and (and (and (and (and (and (and (and (and (and (and (and (and (and (and (and (and (and (and (and (and (and (and (and (and (and (and (and (and (and (and (and (and (and (and (and (and (and (and (and (and (and (and (and (and (and (and (and (and (and (and (and (and (and (and (and (and (and (and (and (and (and (and (and (and (and (and (and (and (and (and (and (and (and (and (and (and (and (and (and (and (and (and (and (and (and (and (and (and (and (and (and (and (and (and (and (and (and (and (and (and (and (and (and (and (and (and (and (and (and (and (and (and (and (and (and (and (and (and (and (and (and (and (and (and (and (and (and (and (and (and (and (and (and (and (and (and (and (and (and (and (and (and (and (and (and (and (and (and (and (and (and (and (and (and (and (and (and (and (and (and (and (and (and (and (and (and (and (and (and (and (and (and (and (and (and (and (and (and (and (and (and (and (and (and (and (and (and (and (and (and (and (and (and (and (and (and (and (and (and (and (and (and (and (and (and (and (and (and (and (and (and (and (and (and (and (and (and (and (and (and (and (and (and (and (and (and (and (and (and (and (and (and (and (and (and (and (and (and (and (and (and (and (and (and (and (and (and (and (and (and (and (and (and (and (and (and (and (and (and (and (or (or ?v_88 ?v_106) ?v_37) (or (or ?v_57 ?v_0) ?v_76)) (or (or ?v_129 ?v_115) ?v_36)) (or (or P28 ?v_3) P12)) (or (or ?v_9 ?v_5) ?v_6)) (or (or ?v_75 ?v_1) ?v_0)) (or (or ?v_18 ?v_1) ?v_2)) (or (or ?v_44 ?v_3) ?v_28)) (or (or ?v_7 ?v_3) ?v_4)) (or (or ?v_13 ?v_90) ?v_42)) (or (or ?v_5 ?v_83) ?v_7)) (or (or ?v_41 ?v_25) ?v_54)) (or (or ?v_14 ?v_24) ?v_9)) (or (or ?v_134 ?v_31) ?v_10)) (or (or ?v_74 P22) ?v_11)) (or (or ?v_65 ?v_12) ?v_13)) (or (or ?v_15 ?v_5) ?v_135)) (or (or ?v_2 ?v_45) ?v_11)) (or (or P11 ?v_50) ?v_10)) (or (or P27 ?v_22) ?v_4)) (or (or ?v_15 ?v_53) P8)) (or (or ?v_34 ?v_0) ?v_59)) (or (or ?v_9 ?v_17) P1)) (or (or ?v_98 ?v_18) ?v_3)) (or (or ?v_33 ?v_19) ?v_27)) (or (or ?v_137 ?v_0) ?v_48)) (or (or ?v_23 ?v_122) ?v_130)) (or (or ?v_39 ?v_84) ?v_23)) (or (or ?v_24 ?v_29) ?v_49)) (or (or ?v_72 ?v_61) ?v_25)) (or (or ?v_121 ?v_13) ?v_6)) (or (or ?v_73 ?v_26) ?v_91)) (or (or ?v_27 ?v_28) ?v_136)) (or (or ?v_155 P23) ?v_82)) (or (or ?v_99 ?v_29) ?v_47)) (or (or P14 ?v_30) P12)) (or (or ?v_31 ?v_32) ?v_1)) (or (or P2 P22) ?v_103)) (or (or ?v_33 P25) ?v_102)) (or (or ?v_34 ?v_32) ?v_64)) (or (or ?v_36 ?v_150) ?v_124)) (or (or ?v_37 ?v_13) P27)) (or (or ?v_38 ?v_39) ?v_40)) (or (or ?v_41 ?v_42) ?v_144)) (or (or ?v_43 ?v_44) P19)) (or (or ?v_45 P26) ?v_37)) (or (or P4 ?v_1) P9)) (or (or ?v_78 ?v_46) P10)) (or (or ?v_47 ?v_48) P26)) (or (or ?v_25 ?v_49) ?v_13)) (or (or ?v_70 ?v_94) ?v_141)) (or (or P15 ?v_22) ?v_86)) (or (or ?v_51 ?v_52) P22)) (or (or ?v_101 P12) ?v_38)) (or (or ?v_49 ?v_66) ?v_54)) (or (or ?v_67 ?v_81) ?v_63)) (or (or ?v_128 ?v_57) ?v_58)) (or (or ?v_39 ?v_26) P26)) (or (or P29 ?v_108) ?v_69)) (or (or ?v_87 ?v_6) ?v_138)) (or (or ?v_60 ?v_44) P27)) (or (or ?v_61 P13) ?v_62)) (or ?v_146 P13)) (or (or ?v_30 P8) ?v_1)) (or (or ?v_119 ?v_64) ?v_60)) (or (or ?v_65 ?v_77) ?v_28)) (or (or ?v_57 P20) ?v_7)) (or (or ?v_58 ?v_43) ?v_66)) (or (or ?v_104 ?v_29) P12)) (or (or ?v_65 ?v_26) P29)) (or (or P22 ?v_79) ?v_5)) (or (or ?v_68 ?v_69) ?v_70)) (or (or ?v_47 ?v_71) P21)) (or (or P26 ?v_100) ?v_73)) (or (or P19 ?v_92) ?v_159)) (or (or ?v_18 ?v_70) ?v_74)) (or (or P27 ?v_70) ?v_10)) (or (or ?v_12 ?v_111) ?v_71)) (or (or ?v_46 ?v_75) ?v_51)) (or (or ?v_39 ?v_31) ?v_76)) (or (or ?v_6 ?v_15) ?v_152)) (or (or ?v_78 P1) ?v_30)) (or (or ?v_85 ?v_7) ?v_11)) (or (or ?v_72 ?v_65) ?v_79)) (or (or ?v_17 P16) ?v_39)) (or (or ?v_93 ?v_52) ?v_47)) (or (or ?v_70 P6) ?v_3)) (or (or ?v_15 ?v_80) ?v_7)) (or (or ?v_18 ?v_81) ?v_63)) (or (or ?v_114 ?v_82) ?v_14)) (or (or ?v_30 ?v_52) ?v_70)) (or (or ?v_70 P19) ?v_83)) (or (or ?v_127 ?v_84) ?v_85)) (or (or ?v_86 ?v_87) ?v_43)) (or (or ?v_74 ?v_88) P23)) (or (or ?v_125 ?v_89) ?v_90)) (or (or ?v_79 ?v_91) ?v_26)) (or (or ?v_54 ?v_92) ?v_97)) (or (or ?v_79 ?v_120) ?v_160)) (or (or ?v_44 ?v_41) ?v_53)) (or (or ?v_50 ?v_90) ?v_94)) (or (or ?v_95 ?v_96) ?v_42)) (or (or ?v_83 P23) ?v_30)) (or (or ?v_52 ?v_97) ?v_98)) (or (or ?v_95 ?v_94) ?v_158)) (or (or ?v_99 ?v_100) ?v_38)) (or (or ?v_69 ?v_49) ?v_101)) (or (or ?v_78 ?v_57) ?v_102)) (or (or ?v_103 ?v_38) ?v_12)) (or (or ?v_104 ?v_113) P22)) (or (or ?v_1 ?v_109) ?v_142)) (or (or ?v_106 P3) ?v_123)) (or (or ?v_108 ?v_83) ?v_87)) (or (or P8 ?v_45) ?v_75)) (or (or P29 ?v_88) P11)) (or (or ?v_28 ?v_4) ?v_43)) (or (or ?v_40 ?v_109) ?v_69)) (or (or P19 P4) ?v_110)) (or (or ?v_91 ?v_26) ?v_112)) (or (or ?v_92 ?v_103) ?v_77)) (or (or P22 ?v_3) ?v_111)) (or (or ?v_153 P17) ?v_108)) (or (or ?v_101 ?v_52) P21)) (or (or ?v_14 ?v_112) ?v_19)) (or (or ?v_52 ?v_88) ?v_7)) (or (or ?v_12 ?v_131) ?v_36)) (or (or ?v_15 P11) ?v_114)) (or (or ?v_115 ?v_116) ?v_104)) (or (or ?v_25 ?v_43) ?v_60)) (or (or ?v_117 ?v_118) P21)) (or (or ?v_49 ?v_3) P16)) (or (or ?v_92 ?v_119) ?v_36)) (or (or ?v_119 ?v_70) ?v_120)) (or (or ?v_119 ?v_38) ?v_42)) (or (or ?v_116 ?v_132) ?v_72)) (or (or ?v_121 ?v_122) P21)) (or (or P10 P26) ?v_123)) (or (or P14 ?v_83) ?v_124)) (or (or ?v_0 ?v_73) ?v_50)) (or (or ?v_52 ?v_122) ?v_64)) (or (or ?v_125 ?v_85) ?v_80)) (or (or P22 ?v_68) ?v_126)) (or (or ?v_82 ?v_87) ?v_118)) (or (or ?v_127 ?v_100) ?v_71)) (or (or P6 ?v_54) ?v_108)) (or (or ?v_63 ?v_91) P24)) (or (or ?v_67 ?v_72) ?v_73)) (or (or ?v_60 ?v_147) ?v_145)) (or (or P22 ?v_28) ?v_65)) (or (or ?v_70 ?v_98) P24)) (or (or ?v_112 ?v_128) ?v_40)) (or (or ?v_71 P9) P3)) (or (or ?v_59 ?v_129) P21)) (or (or ?v_129 ?v_111) ?v_106)) (or (or P0 P18) ?v_32)) (or (or ?v_94 ?v_125) ?v_53)) (or (or ?v_12 ?v_14) ?v_122)) (or (or ?v_78 ?v_47) ?v_101)) (or (or ?v_6 ?v_68) P6)) (or (or ?v_79 ?v_81) ?v_13)) (or (or ?v_130 ?v_101) P4)) (or (or ?v_71 ?v_125) P12)) (or (or ?v_131 ?v_73) ?v_47)) (or (or ?v_0 ?v_2) P21)) (or ?v_156 ?v_94)) (or (or ?v_104 ?v_31) ?v_132)) (or (or ?v_93 ?v_94) ?v_133)) (or (or ?v_28 ?v_120) P18)) (or (or ?v_89 P11) ?v_87)) (or (or ?v_94 ?v_134) ?v_29)) (or (or ?v_123 ?v_132) ?v_75)) (or (or ?v_87 ?v_22) ?v_135)) (or (or ?v_113 ?v_53) ?v_92)) (or (or ?v_127 ?v_136) ?v_78)) (or (or ?v_10 ?v_19) ?v_45)) (or (or P9 ?v_15) ?v_43)) (or (or ?v_140 ?v_127) P8)) (or (or ?v_120 ?v_11) P3)) (or (or ?v_81 ?v_45) ?v_18)) (or (or ?v_88 ?v_117) ?v_45)) (or (or ?v_22 ?v_76) ?v_137)) (or (or ?v_22 ?v_59) ?v_136)) (or (or ?v_138 ?v_0) ?v_28)) (or (or ?v_54 ?v_67) ?v_134)) (or (or ?v_126 ?v_60) P2)) (or (or ?v_108 ?v_117) P3)) (or (or ?v_23 ?v_132) ?v_34)) (or (or P26 P13) ?v_109)) (or (or ?v_137 ?v_89) ?v_91)) (or (or ?v_139 P5) ?v_74)) (or (or ?v_127 ?v_15) ?v_88)) (or (or ?v_81 ?v_63) ?v_3)) (or (or P24 ?v_94) ?v_138)) (or (or ?v_140 ?v_15) ?v_126)) (or (or ?v_133 ?v_2) ?v_15)) (or (or ?v_87 ?v_36) ?v_39)) (or (or ?v_71 ?v_90) ?v_151)) (or (or ?v_47 ?v_26) ?v_117)) (or (or ?v_141 ?v_116) ?v_23)) (or (or ?v_4 ?v_81) P11)) (or (or ?v_23 ?v_69) ?v_140)) (or (or ?v_142 ?v_118) ?v_43)) (or (or ?v_76 P13) ?v_41)) (or (or P26 ?v_13) ?v_19)) (or (or P11 ?v_138) ?v_108)) (or (or ?v_143 ?v_64) ?v_91)) (or (or P19 ?v_99) ?v_104)) (or (or ?v_73 ?v_0) ?v_142)) (or (or ?v_1 ?v_6) ?v_98)) (or (or ?v_46 ?v_78) ?v_123)) (or (or P17 P14) ?v_13)) (or (or ?v_118 ?v_104) ?v_1)) (or (or ?v_23 ?v_3) P24)) (or (or ?v_19 ?v_45) ?v_113)) (or (or ?v_89 ?v_60) P2)) (or (or P19 ?v_87) ?v_101)) (or (or ?v_138 ?v_91) ?v_139)) (or (or ?v_28 ?v_14) ?v_133)) (or (or ?v_144 ?v_133) ?v_41)) (or (or ?v_71 ?v_18) ?v_98)) (or (or ?v_31 P12) P3)) (or (or ?v_118 ?v_123) ?v_115)) (or (or P3 P26) ?v_145)) (or (or ?v_117 ?v_95) ?v_80)) (or (or ?v_144 ?v_47) P23)) (or (or ?v_15 ?v_52) P2)) (or (or ?v_92 ?v_140) ?v_59)) (or (or ?v_7 ?v_133) ?v_106)) (or (or ?v_67 ?v_73) ?v_17)) (or ?v_146 ?v_147)) (or (or ?v_0 ?v_26) ?v_148)) (or (or ?v_17 ?v_25) P29)) (or (or ?v_71 ?v_149) ?v_117)) (or (or P7 ?v_47) P28)) (or (or ?v_7 ?v_49) ?v_123)) (or (or ?v_15 ?v_131) ?v_65)) (or (or P11 P6) ?v_150)) (or (or ?v_29 ?v_36) P1)) (or (or ?v_6 ?v_49) P0)) (or (or ?v_57 ?v_118) ?v_94)) (or (or P24 ?v_53) ?v_151)) (or (or ?v_123 P12) ?v_130)) (or (or ?v_123 ?v_60) ?v_19)) (or (or P21 ?v_68) ?v_40)) (or (or ?v_154 ?v_121) ?v_23)) (or (or ?v_118 P1) ?v_39)) (or (or ?v_139 ?v_36) ?v_111)) (or (or ?v_1 ?v_62) ?v_40)) (or (or ?v_149 ?v_75) ?v_1)) (or (or ?v_124 ?v_78) ?v_111)) (or (or ?v_112 ?v_2) ?v_126)) (or (or ?v_126 ?v_143) ?v_152)) (or (or ?v_6 ?v_83) ?v_149)) (or (or ?v_120 ?v_136) ?v_138)) (or (or ?v_40 ?v_65) P13)) (or (or ?v_96 ?v_134) ?v_117)) (or (or ?v_101 ?v_92) ?v_22)) (or (or ?v_19 ?v_153) ?v_43)) (or (or ?v_17 ?v_148) ?v_6)) (or (or ?v_138 ?v_68) ?v_148)) (or (or ?v_13 ?v_17) P5)) (or (or ?v_140 ?v_44) ?v_133)) (or (or ?v_113 ?v_85) ?v_128)) (or (or ?v_124 ?v_0) P22)) (or (or ?v_78 ?v_130) P29)) (or (or ?v_133 ?v_88) ?v_128)) (or (or P1 ?v_74) ?v_100)) (or (or ?v_84 ?v_48) ?v_28)) (or (or P0 ?v_141) ?v_3)) (or (or ?v_24 ?v_14) ?v_75)) (or (or ?v_100 ?v_127) ?v_60)) (or (or ?v_123 ?v_115) ?v_99)) (or (or ?v_81 ?v_84) ?v_115)) (or (or P15 ?v_102) ?v_88)) (or (or ?v_115 ?v_28) ?v_77)) (or (or ?v_72 ?v_74) ?v_123)) (or (or P3 P2) ?v_74)) (or (or ?v_64 ?v_11) ?v_58)) (or (or ?v_94 ?v_123) ?v_142)) (or (or ?v_93 ?v_125) ?v_78)) (or (or P8 ?v_99) ?v_12)) (or (or P8 ?v_3) ?v_83)) (or (or P28 ?v_139) P15)) (or (or ?v_129 ?v_103) ?v_2)) (or (or ?v_118 ?v_98) ?v_90)) (or (or ?v_116 P5) ?v_66)) (or (or P24 ?v_148) ?v_32)) (or (or ?v_97 ?v_17) ?v_119)) (or (or P13 ?v_19) P20)) (or (or P10 P12) ?v_46)) (or (or ?v_148 ?v_121) ?v_72)) (or (or ?v_90 P9) ?v_77)) (or (or ?v_43 ?v_102) ?v_110)) (or (or ?v_139 ?v_76) ?v_72)) (or (or ?v_11 ?v_102) ?v_106)) (or (or P27 ?v_65) ?v_13)) (or (or ?v_60 ?v_81) ?v_121)) (or (or ?v_15 ?v_54) P20)) (or (or P12 P21) ?v_151)) (or (or ?v_71 ?v_131) P21)) (or (or ?v_127 ?v_149) ?v_102)) (or (or ?v_9 ?v_87) ?v_99)) (or (or ?v_78 ?v_95) P2)) (or (or P10 ?v_145) ?v_95)) (or (or ?v_100 ?v_57) ?v_98)) (or (or ?v_14 P19) ?v_68)) (or (or ?v_75 ?v_154) ?v_11)) (or (or ?v_78 ?v_70) ?v_46)) (or (or ?v_52 ?v_28) ?v_113)) (or (or ?v_10 ?v_154) ?v_42)) (or (or ?v_88 ?v_108) ?v_117)) (or (or ?v_109 ?v_103) ?v_34)) (or (or ?v_108 ?v_95) ?v_109)) (or (or ?v_112 ?v_123) P10)) (or (or ?v_32 ?v_96) ?v_79)) (or (or ?v_76 ?v_49) ?v_87)) (or (or ?v_86 ?v_24) ?v_93)) (or (or ?v_116 ?v_5) ?v_90)) (or (or ?v_114 ?v_115) ?v_155)) (or (or ?v_90 ?v_52) ?v_100)) (or (or ?v_81 ?v_110) P15)) (or (or P23 ?v_44) ?v_131)) (or ?v_156 P0)) (or (or ?v_157 ?v_13) P23)) (or (or ?v_123 ?v_147) ?v_41)) (or (or ?v_139 P4) ?v_60)) (or (or ?v_108 ?v_98) ?v_76)) (or (or ?v_125 P28) ?v_135)) (or (or ?v_81 ?v_52) ?v_158)) (or (or ?v_9 ?v_123) ?v_51)) (or (or ?v_11 ?v_1) ?v_15)) (or (or ?v_140 ?v_84) ?v_149)) (or (or ?v_1 ?v_36) ?v_119)) (or (or ?v_7 P29) ?v_44)) (or (or P14 ?v_84) ?v_93)) (or (or ?v_110 P18) ?v_50)) (or (or P20 ?v_124) P0)) (or (or P4 ?v_0) ?v_80)) (or (or ?v_59 ?v_46) ?v_126)) (or (or ?v_38 ?v_132) ?v_31)) (or (or ?v_51 P5) ?v_2)) (or (or P12 ?v_113) ?v_4)) (or (or P2 ?v_82) P26)) (or (or P4 ?v_50) ?v_113)) (or (or ?v_33 ?v_69) P26)) (or (or ?v_119 ?v_122) P12)) (or (or ?v_109 ?v_118) ?v_83)) (or (or ?v_15 ?v_45) ?v_62)) (or (or ?v_136 P15) ?v_2)) (or (or P20 ?v_149) ?v_33)) (or (or ?v_145 ?v_112) ?v_11)) (or (or ?v_45 ?v_60) ?v_81)) (or (or P27 ?v_54) P26)) (or (or ?v_12 ?v_63) ?v_60)) (or (or ?v_39 P14) ?v_136)) (or (or ?v_119 P21) ?v_101)) (or (or ?v_31 ?v_29) P14)) (or (or P4 ?v_9) ?v_43)) (or (or ?v_118 ?v_46) P5)) (or (or ?v_27 ?v_37) ?v_147)) (or (or ?v_133 ?v_159) ?v_44)) (or (or ?v_108 ?v_42) ?v_78)) (or (or ?v_76 P11) ?v_79)) (or (or ?v_28 ?v_148) ?v_103)) (or (or ?v_141 ?v_132) ?v_129)) (or (or ?v_30 ?v_62) ?v_95)) (or (or ?v_31 ?v_127) ?v_5)) (or (or ?v_85 ?v_158) ?v_115)) (or (or ?v_39 ?v_52) P27)) (or (or ?v_142 ?v_92) ?v_64)) (or (or ?v_6 ?v_138) ?v_157)) (or (or ?v_71 P1) ?v_94)) (or (or ?v_160 P9) ?v_3)) (or (or P20 ?v_90) ?v_65)) (or (or ?v_51 P26) ?v_101)) (or (or ?v_34 ?v_143) ?v_65)) (or (or ?v_113 ?v_97) ?v_19)) (or (or P1 ?v_47) ?v_39)) (or (or ?v_41 ?v_139) P8)) (or (or ?v_124 ?v_139) P27)) (or (or ?v_159 ?v_5) ?v_136)) (or (or ?v_39 ?v_106) P20)) (or (or ?v_76 P9) ?v_86)) (or (or ?v_38 P11) P3)) (or (or ?v_145 ?v_38) P7)) (or (or ?v_71 ?v_128) ?v_0)) (or (or ?v_42 ?v_9) ?v_30)) (or (or ?v_155 ?v_3) P18)) (or (or ?v_79 ?v_110) ?v_150)) (or (or ?v_44 ?v_82) ?v_124)) (or (or ?v_154 ?v_9) ?v_141)) (or (or P15 P26) ?v_42)) (or (or P6 ?v_86) ?v_84)) (or (or ?v_73 ?v_148) ?v_25)) (or (or P1 ?v_10) ?v_51)) (or (or ?v_117 ?v_33) ?v_147)) (or (or ?v_124 P19) P23)) (or (or ?v_154 ?v_159) ?v_27)) (or (or ?v_4 ?v_58) ?v_25)) (or (or ?v_31 ?v_79) ?v_157)) (or (or ?v_132 ?v_151) ?v_76)) (or (or ?v_142 ?v_113) ?v_39)) (or (or ?v_130 ?v_17) ?v_67)) (or (or ?v_67 ?v_94) ?v_123)) (or (or P7 ?v_83) ?v_152)) (or (or ?v_69 ?v_54) ?v_30)) (or (or ?v_79 P10) P12)) (or (or ?v_47 ?v_24) ?v_18)) (or (or ?v_72 ?v_100) ?v_74)) (or (or ?v_33 P14) P8)) (or (or ?v_119 P2) ?v_152)) (or (or P13 ?v_81) ?v_103)) (or (or P2 ?v_32) ?v_148)) (or (or ?v_53 ?v_111) ?v_81)) (or (or ?v_128 ?v_13) ?v_65)) (or (or ?v_86 ?v_26) ?v_30)) (or (or ?v_72 ?v_106) ?v_73)) (or (or ?v_42 P5) P11)) (or (or ?v_148 ?v_18) P20)) (or (or ?v_3 P21) ?v_106)) (or (or ?v_88 ?v_141) ?v_106)) (or (or P9 ?v_126) ?v_152)) (or (or ?v_59 ?v_123) P7)) (or (or ?v_47 ?v_129) ?v_134)) (or (or ?v_17 ?v_87) ?v_123)) (or (or ?v_45 ?v_13) ?v_63)) (or (or ?v_147 ?v_64) ?v_14)) (or (or ?v_14 ?v_87) ?v_26)) (or (or ?v_114 ?v_44) P1)) (or (or ?v_99 ?v_0) ?v_90)) (or (or ?v_110 P2) ?v_135)) (or (or P11 ?v_89) ?v_127)) (or (or ?v_116 ?v_47) ?v_147)) (or (or ?v_152 ?v_96) P13)) (or (or ?v_125 ?v_103) ?v_62)) (or (or P20 P18) ?v_50)) (or (or ?v_137 ?v_154) ?v_14)) (or (or ?v_153 ?v_39) ?v_108)) (or (or ?v_34 ?v_3) ?v_23)) (or (or ?v_65 P19) ?v_123)) (or (or ?v_144 ?v_75) ?v_53)) (or (or ?v_81 ?v_17) ?v_145)) (or (or ?v_47 ?v_6) ?v_152)) (or (or ?v_125 ?v_122) ?v_92)) (or (or P5 ?v_136) ?v_148)) (or (or ?v_4 ?v_151) ?v_17)) (or (or ?v_87 ?v_63) ?v_155)) (or (or ?v_46 ?v_64) ?v_14)) (or (or ?v_115 ?v_23) ?v_36)) (or (or ?v_131 ?v_121) ?v_132)))))))))))))))))))))))))))
(check-sat)
(exit)
